c Created with the Wolfram Language : www.wolfram.com
c 
p edge 100 483
e 5 6
e 1 7
e 2 8
e 8 9
e 2 10
e 5 10
e 8 10
e 3 11
e 1 13
e 11 13
e 4 14
e 5 14
e 3 15
e 2 16
e 10 17
e 9 18
e 3 19
e 6 19
e 14 20
e 19 20
e 5 21
e 11 21
e 1 22
e 8 22
e 14 22
e 16 22
e 17 22
e 22 23
e 5 24
e 6 24
e 14 24
e 17 24
e 3 25
e 4 25
e 16 25
e 16 26
e 18 26
e 7 27
e 8 27
e 14 27
e 18 27
e 24 27
e 6 28
e 10 28
e 14 28
e 16 28
e 17 29
e 18 29
e 22 29
e 25 29
e 7 30
e 10 30
e 27 31
e 1 32
e 15 32
e 24 32
e 28 32
e 7 33
e 14 33
e 31 33
e 15 34
e 18 34
e 1 35
e 6 35
e 24 35
e 26 35
e 34 35
e 7 36
e 8 36
e 7 37
e 26 37
e 29 37
e 4 38
e 23 38
e 27 38
e 1 39
e 13 39
e 20 39
e 28 40
e 30 40
e 32 40
e 1 41
e 31 41
e 33 41
e 35 41
e 10 42
e 11 42
e 25 42
e 31 42
e 41 42
e 32 43
e 2 44
e 23 44
e 35 44
e 38 44
e 39 44
e 4 45
e 11 45
e 19 45
e 24 45
e 31 45
e 43 45
e 44 45
e 4 46
e 26 46
e 37 46
e 19 47
e 23 47
e 31 47
e 40 47
e 8 48
e 17 48
e 25 48
e 32 48
e 38 48
e 2 49
e 6 49
e 10 49
e 9 50
e 10 50
e 20 50
e 13 51
e 14 51
e 23 51
e 39 51
e 8 52
e 14 52
e 16 52
e 27 52
e 35 52
e 22 53
e 25 53
e 36 53
e 38 53
e 50 53
e 7 54
e 15 54
e 24 54
e 27 54
e 48 54
e 52 54
e 1 55
e 18 55
e 34 55
e 43 55
e 44 55
e 54 55
e 3 56
e 8 56
e 22 56
e 39 56
e 46 56
e 19 57
e 25 57
e 41 57
e 52 57
e 6 58
e 12 58
e 18 58
e 45 58
e 52 58
e 55 58
e 1 59
e 5 59
e 11 59
e 22 59
e 25 59
e 26 59
e 31 59
e 32 59
e 36 59
e 5 60
e 10 60
e 18 60
e 27 60
e 45 60
e 52 60
e 53 60
e 1 61
e 3 61
e 8 61
e 42 61
e 55 61
e 59 61
e 7 62
e 19 62
e 20 62
e 28 62
e 39 62
e 50 62
e 57 62
e 2 63
e 33 63
e 39 63
e 58 63
e 62 63
e 19 64
e 25 64
e 28 64
e 37 64
e 39 64
e 43 64
e 53 64
e 4 65
e 7 65
e 11 65
e 13 65
e 33 65
e 49 65
e 2 66
e 44 66
e 45 66
e 47 66
e 58 66
e 1 67
e 10 67
e 35 67
e 46 67
e 25 68
e 28 68
e 30 68
e 58 68
e 5 69
e 20 69
e 30 69
e 46 69
e 6 70
e 16 70
e 17 70
e 23 70
e 25 70
e 38 70
e 57 70
e 69 70
e 6 71
e 26 71
e 40 71
e 42 71
e 48 71
e 59 71
e 64 71
e 24 72
e 30 72
e 36 72
e 39 72
e 43 72
e 67 72
e 2 73
e 5 73
e 10 73
e 43 73
e 51 73
e 59 73
e 2 74
e 8 74
e 10 74
e 13 74
e 28 74
e 32 74
e 36 74
e 56 74
e 61 74
e 62 74
e 10 75
e 16 75
e 28 75
e 50 75
e 68 75
e 12 76
e 16 76
e 31 76
e 45 76
e 2 77
e 7 77
e 8 77
e 13 77
e 16 77
e 53 77
e 25 78
e 57 78
e 63 78
e 12 79
e 28 79
e 65 79
e 66 79
e 30 80
e 31 80
e 33 80
e 34 80
e 42 80
e 63 80
e 66 80
e 67 80
e 71 80
e 72 80
e 75 80
e 17 81
e 26 81
e 48 81
e 5 82
e 10 82
e 30 82
e 37 82
e 39 82
e 48 82
e 55 82
e 67 82
e 71 82
e 76 82
e 79 82
e 4 83
e 20 83
e 29 83
e 37 83
e 39 83
e 50 83
e 55 83
e 4 84
e 17 84
e 30 84
e 40 84
e 83 84
e 1 85
e 21 85
e 24 85
e 26 85
e 28 85
e 40 85
e 41 85
e 44 85
e 60 85
e 63 85
e 69 85
e 73 85
e 82 85
e 5 86
e 7 86
e 10 86
e 17 86
e 18 86
e 28 86
e 33 86
e 36 86
e 57 86
e 64 86
e 65 86
e 81 86
e 9 87
e 21 87
e 22 87
e 29 87
e 35 87
e 50 87
e 53 87
e 65 87
e 79 87
e 3 88
e 9 88
e 10 88
e 46 88
e 70 88
e 87 88
e 2 89
e 4 89
e 25 89
e 26 89
e 32 89
e 38 89
e 45 89
e 48 89
e 51 89
e 70 89
e 85 89
e 8 90
e 13 90
e 17 90
e 24 90
e 29 90
e 33 90
e 44 90
e 71 90
e 73 90
e 81 90
e 14 91
e 33 91
e 40 91
e 43 91
e 60 91
e 63 91
e 84 91
e 5 92
e 35 92
e 38 92
e 40 92
e 64 92
e 68 92
e 72 92
e 77 92
e 78 92
e 14 93
e 69 93
e 72 93
e 77 93
e 80 93
e 4 94
e 8 94
e 12 94
e 15 94
e 18 94
e 22 94
e 31 94
e 34 94
e 40 94
e 49 94
e 50 94
e 67 94
e 72 94
e 78 94
e 80 94
e 87 94
e 91 94
e 10 95
e 11 95
e 16 95
e 29 95
e 30 95
e 33 95
e 41 95
e 55 95
e 69 95
e 85 95
e 94 95
e 9 96
e 32 96
e 33 96
e 34 96
e 40 96
e 41 96
e 48 96
e 53 96
e 87 96
e 93 96
e 2 97
e 3 97
e 9 97
e 32 97
e 47 97
e 68 97
e 70 97
e 72 97
e 75 97
e 93 97
e 7 98
e 8 98
e 14 98
e 32 98
e 58 98
e 64 98
e 71 98
e 97 98
e 15 99
e 28 99
e 44 99
e 56 99
e 69 99
e 89 99
e 91 99
e 6 100
e 12 100
e 16 100
e 36 100
e 37 100
e 53 100
e 54 100
e 59 100
e 60 100
e 63 100
e 81 100
e 86 100
e 91 100
e 96 100
e 98 100
e 99 100
